c This is a random SAT instance with 10 variables and 20 clauses
p cnf 10 20
2 7 9 -7 4 10 8 -8 -4 0
-1 -9 2 5 1 8 0
2 4 -3 0
-2 5 10 2 -1 0
7 1 -5 -3 0
9 10 3 -7 -10 -1 -5 4 0
6 -4 8 -7 4 0
-5 -9 1 5 10 4 6 -2 0
-1 8 10 -6 -5 0
6 4 -1 -9 10 -10 8 -8 7 0
3 5 9 -2 4 0
-1 -8 3 -10 10 8 9 -7 -4 0
8 9 3 1 -8 -5 -3 4 6 5 0
10 -8 -7 -2 8 -10 -4 -6 0
-7 2 10 1 5 8 -3 7 -4 -6 0
7 0
4 -2 0
6 -6 9 -5 -1 -10 -2 0
-2 9 -8 -7 -1 7 3 -9 1 -5 0
5 7 9 -8 1 -7 -6 8 6 4 0